NAME: test44
TYPE: TSP
DIMENSION: 10
EDGE_WEIGHT_TYPE: EUC_2D
NODE_COORD_SECTION
1 13.13398221034362 86.80734557016358
2 13.221318835806994 1.3909940349015715
3 34.428096935089556 75.74328062058268
4 98.81578655158651 97.9000421263239
5 48.328378560576034 23.305829250279466
6 30.75172896642592 74.06645382487326
7 25.00806926030834 80.02959993085413
8 78.1515132745969 87.12202067264617
9 14.619579071894906 69.60473837315548
10 43.84488611935322 22.102001130959238
EOF
